global                                  
   1.0000000000000000     
     2.5039999485000002    0.0000000000000000    0.0000000000000000
    -1.2519999743000001    2.1685275664999999    0.0000000000000000
     0.0000000000000000    0.0000000000000000   20.1060009002999998
   B    N 
     6     6
Direct
  0.0000000000000000  0.0000000000000000  0.2500000000000000
  0.0000000000000000  0.0000000000000000  0.5833329929999991
  0.0000000000000000  0.0000000000000000  0.9166670070000009
  0.3333300030000004  0.6666700130000009  0.0833332959999993
  0.3333300030000004  0.6666700130000009  0.4166670070000009
  0.3333300030000004  0.6666700130000009  0.7499999759999980
  0.0000000000000000  0.0000000000000000  0.0833332959999993
  0.0000000000000000  0.0000000000000000  0.4166670070000009
  0.0000000000000000  0.0000000000000000  0.7499999759999980
  0.3333300030000004  0.6666700130000009  0.2500000000000000
  0.3333300030000004  0.6666700130000009  0.5833329929999991
  0.3333300030000004  0.6666700130000009  0.9166670070000009

  0.00000000E+00  0.00000000E+00  0.00000000E+00
  0.00000000E+00  0.00000000E+00  0.00000000E+00
  0.00000000E+00  0.00000000E+00  0.00000000E+00
  0.00000000E+00  0.00000000E+00  0.00000000E+00
  0.00000000E+00  0.00000000E+00  0.00000000E+00
  0.00000000E+00  0.00000000E+00  0.00000000E+00
  0.00000000E+00  0.00000000E+00  0.00000000E+00
  0.00000000E+00  0.00000000E+00  0.00000000E+00
  0.00000000E+00  0.00000000E+00  0.00000000E+00
  0.00000000E+00  0.00000000E+00  0.00000000E+00
  0.00000000E+00  0.00000000E+00  0.00000000E+00
  0.00000000E+00  0.00000000E+00  0.00000000E+00
